% demand
num_movements = 17;
loading_factor = [1300, 1700, 1400, 850, 1250, 1600, 2000, 1500, 1200, 1950, 800, 1150, 1100, 1350, 1550, 1600, 850];
pickup_time = [0, 0, 1, 1, 1, 1, 2, 2, 2, 4, 6, 6, 7, 8, 9, 9, 10];
delivery_time = [1, 6, 2, 2, 2, 2, 8, 4, 8, 6, 8, 10, 11, 11, 11, 10, 11];

% transporter definition
total_capacity = 7000;
num_decks = 3;
capacity = [3000, 1000, 3000];

% ways out of decks
num_ways_out = 1;
paths_out = array3d(decks, ways_out, decks, [
% ways out of deck d1
2, 3, 0, 

% ways out of deck d2
3, 0, 0, 

% ways out of deck d3
0, 0, 0,	

]);

